31498.44
120 1 175 169 43 49 190 193 194 149 38 185 81 94 12 75 32 36 142 4 104 95 77 51 155 170 137 138 127 47 187 197 99 70 40 157 13 2 42 133 189 124 116 45 28 29 171 182 161 84 67 72 122 134 101 80 24 60 176 66 27 92 57 179 50 86 105 153 8 56 146 130 166 19 6 174 82 121 33 107 54 11 26 85 34 141 154 163 119 61 59 178 76 164 112 114 22 97 126 90 44 184 31 100 152 14 16 10 139 46 111 145 71 20 73 58 123 131 35 160 37 125 98 106 181 177 108 23 17 115 78 136 83 128 9 117 148 89 48 192 103 159 0 62 5 198 109 74 191 118 18 165 52 143 15 87 162 150 93 21 69 151 110 183 147 65 195 186 25 64 3 196 180 96 144 132 55 199 173 156 135 113 91 7 168 41 79 30 88 102 172 158 140 188 129 167 68 63 39 53